(set-logic ALL)
(declare-fun i1 () Int)
(declare-fun it176 () Int)
(declare-fun it177 () Int)
(declare-fun i2 () Int)
(declare-fun it178 () Int)
(declare-fun i3 () Int)
(declare-fun it179 () Int)
(declare-fun i4 () Int)
(declare-fun it180 () Int)
(declare-fun i5 () Int)
(declare-fun it181 () Int)
(declare-fun i6 () Int)
(declare-fun i7 () Int)
(declare-fun it182 () Int)
(declare-fun it258 () Int)
(declare-fun it259 () Int)
(declare-fun it260 () Int)
(declare-fun it261 () Int)
(declare-fun it262 () Int)
(declare-fun it263 () Int)
(declare-fun it264 () Int)
(declare-fun it117 () Int)
(assert (= (+ i1 (- 1)) 0))
(assert (= (+ it176 (- 2)) 0))
(assert (= (+ (* i2 (- 1)) it177 (- 1)) 0))
(assert (= (+ (* i3 (- 1)) it178) 0))
(assert (= (+ (* i4 (- 1)) it179) 0))
(assert (= (+ (* i5 (- 1)) it180) 0))
(assert (= (+ (* i6 (- 1)) it181) 0))
(assert (= (+ it182 (* i7 (- 1))) 0))
(assert (and (<= (+ (* it181 (- 1)) (- 5)) 0)
     (<= (+ it181 (- 5)) 0)
     (> it178 0)
     (= (+ it176 (- 2)) 0)))
(assert (= (+ it258 (- 3)) 0))
(assert (= (+ it259 (* it177 (- 1)) (- 2)) 0))
(assert (= (+ it260 (* it178 (- 1))) 0))
(assert (= (+ it261 (* it178 (- 1))) 0))
(assert (= (+ (* it182 (- 1)) it262) 0))
(assert (= (+ it263 (* it181 (- 1))) 0))
(assert (= (+ (* it182 (- 1)) it264) 0))
(assert (let ((a!1 (* (exp (exp 4 (+ it117 (- 1))) (+ 0 2)) (exp it261 2)))
      (a!2 (* (* (exp it263 3) (exp 9 (+ it117 (- 1)))) (+ 0 (- 1))))
      (a!4 (> (+ (* (exp it263 5) (+ 0 (- 1)))
                 (* (exp it261 2) (+ 0 (- 1)))
                 (+ 0 it262))
              (+ 0 0)))
      (a!5 (> (+ (* (exp it263 5) (+ 0 (- 1)))
                 (* (exp it263 3) (+ 0 (- 2)))
                 (* (exp it261 2) (+ 0 (- 4)))
                 (+ 0 (* it262 3)))
              (+ 0 0)))
      (a!6 (* (* (exp 9 (+ it117 (- 1))) (+ 0 it262)) (+ 0 3)))
      (a!7 (* (* (exp it263 3) (exp 9 (+ it117 (- 1)))) (+ 0 (- 3)))))
(let ((a!3 (+ (* a!1 (+ 0 (- 1)))
              (* (exp 9 (+ it117 (- 1))) (+ 0 it262))
              (* (exp it263 5) (+ 0 (- 1)))
              (exp it263 3)
              a!2))
      (a!8 (> (+ (* a!1 (+ 0 (- 4)))
                 a!6
                 (* (exp it263 5) (+ 0 (- 1)))
                 (exp it263 3)
                 a!7)
              (+ 0 0))))
  (and (> a!3 (+ 0 0))
       a!4
       a!5
       a!8
       (> (* it261 2) 0)
       (>= (+ it258 (- 3)) 0)
       (> it261 0)
       (>= (+ it117 (- 1)) 0)
       (>= (+ (* it258 (- 1)) 3) 0)))))
(check-sat)
